(declare-const X String)
; /\x2elnk([\?\x5c\x2f]|$)/smiU
(assert (str.in_re X (re.++ (str.to_re "/.lnk") (re.union (str.to_re "?") (str.to_re "\u{5c}") (str.to_re "/")) (str.to_re "/smiU\u{a}"))))
; /filename=[^\n]*\x2eplp/i
(assert (str.in_re X (re.++ (str.to_re "/filename=") (re.* (re.comp (str.to_re "\u{a}"))) (str.to_re ".plp/i\u{a}"))))
; /filename=[^\n]*\x2ewps/i
(assert (not (str.in_re X (re.++ (str.to_re "/filename=") (re.* (re.comp (str.to_re "\u{a}"))) (str.to_re ".wps/i\u{a}")))))
; /\x2exsl([\?\x5c\x2f]|$)/smiU
(assert (not (str.in_re X (re.++ (str.to_re "/.xsl") (re.union (str.to_re "?") (str.to_re "\u{5c}") (str.to_re "/")) (str.to_re "/smiU\u{a}")))))
(check-sat)

(exit)
